analyze/results_flowersnark/final_miplib_symretope_if_extended_generating_set_cpx_v802__settings_final_nopeek_norelabel_extend_norestarts__1__square31.mps.gz.sol
solution status: optimal solution found
objective value:                                   15
x_1_1_15                                            1 	(obj:1)
x_1_16_16                            1.00000000000001 	(obj:1)
x_16_1_11                                           1 	(obj:1)
x_16_12_2                                           1 	(obj:1)
x_16_14_2                                           1 	(obj:1)
x_17_16_1                                           1 	(obj:1)
x_17_17_15                           1.00000000000002 	(obj:1)
x_18_12_5                                           1 	(obj:1)
x_23_12_5                                           1 	(obj:1)
x_27_1_5                                            1 	(obj:1)
x_27_6_5                                            1 	(obj:1)
x_27_11_1                                           1 	(obj:1)
x_28_11_4                                           1 	(obj:1)
x_28_15_2                                           1 	(obj:1)
x_30_15_2                                           1 	(obj:1)
y_16                                 1.00000000000001 	(obj:0)
y_15                                 2.00000000000002 	(obj:0)
y_11                                                1 	(obj:0)
y_5                                                 4 	(obj:0)
y_4                                                 1 	(obj:0)
y_2                                                 4 	(obj:0)
y_1                                                 2 	(obj:0)
