analyze/results_flowersnark/final_miplib_symretope_if_extended_generating_set_cpx_v802__settings_final_nopeek_norelabel_extend_norestarts__1__square31.mps.gz.out
FILENAME:   /home/mcs001/s132664/testsets/IP/miplib2017/square31.mps.gz
SETTINGS:   settings_final_nopeek_norelabel_extend_norestarts
TIMELIMIT:  7200
OUTPUTNAME: final_miplib_symretope_if_extended_generating_set_cpx_v802__settings_final_nopeek_norelabel_extend_norestarts__1__
BINNAME:    bin/sbcs.linux.x86_64.gnu.opt.cpx
BASENAME:   square31.mps.gz
SEED:       1
@01 /home/mcs001/s132664/testsets/IP/miplib2017/square31.mps.gz ===========
@02 square31.mps.gz
@03 1686656434
SCIP version 8.0.2 [precision: 8 byte] [memory: block] [mode: optimized] [LP solver: CPLEX 20.1.0.0] [GitHash: 5f0473c]
Copyright (C) 2002-2022 Konrad-Zuse-Zentrum fuer Informationstechnik Berlin (ZIB)

Symretope propagation methods - (c) Jasper van Doornmalen, Christopher Hojny.
[GitHash: 2fd0484]

reading parameter file <../settings/settings_final_nopeek_norelabel_extend_norestarts.set> ...

Changed settings:
limits/time = 7200
limits/restarts = 0
misc/usesymmetry = 1
randomization/randomseedshift = 1
constraints/orbisack/sepafreq = -1
constraints/symresack/sepafreq = -1
propagating/symmetry/addsymresacks = TRUE
propagating/symmetry/detectsubgroups = FALSE
propagating/symmetry/relabelsymretopes = 0
propagating/symmetry/extendgenerators = TRUE
propagating/symmetry/ofsymcomptiming = 0
constraints/symretope/sepafreq = -1
constraints/symretope/peek = FALSE


solving problem ...

original problem has 28860 variables (28830 bin, 30 int, 0 impl, 0 cont) and 19435 constraints
presolving:
(round 1, fast)       18415 del vars, 18415 del conss, 0 add conss, 18445 chg bounds, 0 chg sides, 0 chg coeffs, 0 upgd conss, 0 impls, 961 clqs
(round 2, exhaustive) 18415 del vars, 18415 del conss, 0 add conss, 18445 chg bounds, 0 chg sides, 0 chg coeffs, 961 upgd conss, 0 impls, 961 clqs
(round 3, exhaustive) 18415 del vars, 18434 del conss, 0 add conss, 18445 chg bounds, 19 chg sides, 0 chg coeffs, 961 upgd conss, 0 impls, 961 clqs
   (17.2s) probing: 1000/10415 (9.6%) - 0 fixings, 0 aggregations, 22365 implications, 0 bound changes
   (17.2s) probing: 1001/10415 (9.6%) - 0 fixings, 0 aggregations, 22391 implications, 0 bound changes
   (17.2s) probing aborted: 1000/1000 successive useless probings
   (18.1s) symmetry computation started: requiring (bin +, int +, cont +), (fixed: bin -, int -, cont -)
   (18.8s) symmetry computation finished: 2 generators found (max: 1500, log10 of symmetry group size: 0.9)
(round 4, exhaustive) 18415 del vars, 18434 del conss, 3 add conss, 18445 chg bounds, 19 chg sides, 0 chg coeffs, 961 upgd conss, 22243 impls, 1109 clqs
presolving (5 rounds: 5 fast, 4 medium, 4 exhaustive):
 18415 deleted vars, 18434 deleted constraints, 3 added constraints, 18445 tightened bounds, 0 added holes, 19 changed sides, 0 changed coefficients
 22243 implications, 1109 cliques
presolved problem has 10445 variables (10415 bin, 30 int, 0 impl, 0 cont) and 1004 constraints
    961 constraints of type <setppc>
     40 constraints of type <linear>
      2 constraints of type <orbisack>
      1 constraints of type <symretope>
transformed objective value is always integral (scale: 1)
Presolving Time: 17.85

 time | node  | left  |LP iter|LP it/n|mem/heur|mdpt |vars |cons |rows |cuts |sepa|confs|strbr|  dualbound   | primalbound  |  gap   | compl. 
p19.9s|     1 |     0 |   394 |     - |  clique|   0 |  10k|1004 |1006 |   0 |  0 |   0 |   0 | 4.000000e+00 | 2.500000e+01 | 525.00%| unknown
 36.4s|     1 |     0 |  3114 |     - |  1619M |   0 |  10k|1033 |1006 |   0 |  0 |  32 |   0 | 8.500000e+00 | 2.500000e+01 | 194.12%| unknown
 36.5s|     1 |     0 |  3114 |     - |  1620M |   0 |  10k|1036 |1006 |   0 |  0 |  35 |   0 | 8.500000e+00 | 2.500000e+01 | 194.12%| unknown
  219s|     1 |     2 | 20283 |     - |  1623M |   0 |  10k|1034 |1006 |   0 |  2 |  35 |  79 | 8.693181e+00 | 2.500000e+01 | 187.58%| unknown
* 224s|     2 |     1 | 23835 |21115.0 |strongbr|   1 |  10k|1023 |1002 |   0 |  1 |  35 |  79 | 8.693181e+00 | 1.500000e+01 |  72.55%| unknown
  406s|   100 |    15 | 93361 | 915.6 |  1632M |  16 |  10k|1037 |1002 |   0 |  2 |  50 | 250 | 9.030053e+00 | 1.500000e+01 |  66.11%|  68.80%
  459s|   200 |    44 |167487 | 828.0 |  1644M |  37 |  10k|1045 |1002 |   0 |  2 |  64 | 280 | 9.818964e+00 | 1.500000e+01 |  52.77%|  68.81%
  511s|   300 |    59 |248871 | 823.2 |  1650M |  45 |  10k|1082 |1002 |   0 |  4 | 108 | 331 | 1.058851e+01 | 1.500000e+01 |  41.66%|  69.56%
  550s|   400 |    64 |313439 | 778.7 |  1664M |  45 |  10k|1163 |1002 |   0 |  2 | 208 | 375 | 1.092466e+01 | 1.500000e+01 |  37.30%|  70.20%
  587s|   500 |    77 |376002 | 748.1 |  1670M |  45 |  10k|1158 |1002 |   0 |  2 | 261 | 411 | 1.099365e+01 | 1.500000e+01 |  36.44%|  70.40%
  632s|   600 |    75 |445247 | 738.8 |  1678M |  46 |  10k|1184 |1002 |   0 |  2 | 354 | 493 | 1.157979e+01 | 1.500000e+01 |  29.54%|  70.44%
  664s|   700 |    72 |498927 | 709.9 |  1683M |  54 |  10k|1231 |1002 |   0 |  0 | 416 | 533 | 1.167082e+01 | 1.500000e+01 |  28.53%|  70.47%
  687s|   800 |    59 |541395 | 674.2 |  1688M |  54 |  10k|1277 |1002 |   0 |  0 | 477 | 571 | 1.169403e+01 | 1.500000e+01 |  28.27%|  72.96%
  714s|   900 |    41 |589043 | 652.2 |  1694M |  57 |  10k|1319 |1002 |   0 |  0 | 550 | 621 | 1.216176e+01 | 1.500000e+01 |  23.34%|  73.05%
  736s|  1000 |    17 |627511 | 625.4 |  1697M |  62 |  10k|1386 |1002 |   0 |  0 | 635 | 665 | 1.250323e+01 | 1.500000e+01 |  19.97%|  73.21%

SCIP Status        : problem is solved [optimal solution found]
Solving Time (sec) : 740.27
Solving Nodes      : 1021
Primal Bound       : +1.50000000000000e+01 (2 solutions)
Dual Bound         : +1.50000000000000e+01
Gap                : 0.00 %
SCIP Status        : problem is solved [optimal solution found]
Total Time         :     742.48
  solving          :     740.27
  presolving       :      17.85 (included in solving)
  reading          :       2.22
  copying          :       1.07 (12 #copies) (minimal 0.08, maximal 0.09, average 0.09)
Original Problem   :
  Problem name     : square31
  Variables        : 28860 (28830 binary, 30 integer, 0 implicit integer, 0 continuous)
  Constraints      : 19435 initial, 19435 maximal
  Objective        : minimize, 28830 non-zeros (abs.min = 1, abs.max = 1)
Presolved Problem  :
  Problem name     : t_square31
  Variables        : 10445 (10415 binary, 30 integer, 0 implicit integer, 0 continuous)
  Constraints      : 1004 initial, 1398 maximal
  Objective        : minimize, 10295 non-zeros (abs.min = 1, abs.max = 1)
  Nonzeros         : 1158701 constraint, 879170 clique table
Presolvers         :   ExecTime  SetupTime  Calls  FixedVars   AggrVars   ChgTypes  ChgBounds   AddHoles    DelCons    AddCons   ChgSides   ChgCoefs
  boundshift       :       0.00       0.00      0          0          0          0          0          0          0          0          0          0
  convertinttobin  :       0.00       0.00      0          0          0          0          0          0          0          0          0          0
  domcol           :       0.18       0.00      2          0          0          0          0          0          0          0          0          0
  dualagg          :       0.00       0.00      0          0          0          0          0          0          0          0          0          0
  dualcomp         :       0.00       0.00      0          0          0          0          0          0          0          0          0          0
  dualinfer        :       0.00       0.00      0          0          0          0          0          0          0          0          0          0
  dualsparsify     :       0.90       0.00      1          0          0          0          0          0          0          0          0          0
  gateextraction   :       0.00       0.00      0          0          0          0          0          0          0          0          0          0
  implics          :       0.00       0.00      4          0          0          0          0          0          0          0          0          0
  inttobinary      :       0.00       0.00      5          0          0          0          0          0          0          0          0          0
  qpkktref         :       0.00       0.00      0          0          0          0          0          0          0          0          0          0
  redvub           :       0.00       0.00      0          0          0          0          0          0          0          0          0          0
  sparsify         :       0.67       0.00      1          0          0          0          0          0          0          0          0          0
  stuffing         :       0.00       0.00      0          0          0          0          0          0          0          0          0          0
  trivial          :       0.00       0.00      5          0          0          0          0          0          0          0          0          0
  tworowbnd        :       0.00       0.00      0          0          0          0          0          0          0          0          0          0
  dualfix          :       0.00       0.00      5          0          0          0          0          0          0          0          0          0
  genvbounds       :       0.00       0.00      0          0          0          0          0          0          0          0          0          0
  probing          :      10.08       0.00      1          0          0          0          0          0          0          0          0          0
  pseudoobj        :       0.00       0.00      0          0          0          0          0          0          0          0          0          0
  symmetry         :       0.74       0.00      1          0          0          0          0          0          0          3          0          0
  vbounds          :       0.04       0.00      2          0          0          0          0          0          0          0          0          0
  knapsack         :       0.00       0.00      0          0          0          0          0          0          0          0          0          0
  setppc           :       0.48       0.01      9          0          0          0          0          0          0          0          0          0
  linear           :       4.29       0.90      9      18415          0          0      18445          0      18434          0         19          0
  orbisack         :       0.00       0.00      1          0          0          0          0          0          0          0          0          0
  symretope        :       0.00       0.00      1          0          0          0          0          0          0          0          0          0
  logicor          :       0.00       0.00      0          0          0          0          0          0          0          0          0          0
  bounddisjunction :       0.00       0.00      0          0          0          0          0          0          0          0          0          0
  benders          :       0.00       0.00      0          0          0          0          0          0          0          0          0          0
  components       :       0.18       0.00      1          0          0          0          0          0          0          0          0          0
  root node        :          -          -      -        694          -          -        754          -          -          -          -          -
Constraints        :     Number  MaxNumber  #Separate #Propagate    #EnfoLP    #EnfoRelax  #EnfoPS    #Check   #ResProp    Cutoffs    DomReds       Cuts    Applied      Conss   Children
  benderslp        :          0          0          0          0        596          0          0         38          0          0          0          0          0          0          0
  integral         :          0          0          0          0        596          0          0         38          0          1        283          0          0        379       1034
  knapsack         :          0+         1          0        964          0          0          0          0         19          0         44          0          0          0          0
  setppc           :        961+       977          1      11597          0          0          0         32     153666         93     404057          0          0          0          0
  linear           :         40         40          1      11504          0          0          0          2        964         16      20397          0          0          0          0
  orbisack         :          2          2          0        172          0          0          0          2        161         33        464          0          0          0          0
  symretope        :          1          1          0        510          0          0          0          2        137          1        388          0          0          0          0
  logicor          :          0+       241          1       1786          0          0          0          0        221         34        184          0          0          0          0
  bounddisjunction :          0+       143          0       1331          0          0          0          0         29          6          6          0          0          0          0
  benders          :          0          0          0          0          0          0          0          3          0          0          0          0          0          0          0
  countsols        :          0          0          0          0          0          0          0          3          0          0          0          0          0          0          0
  components       :          0          0          0          0          0          0          0          0          0          0          0          0          0          0          0
Constraint Timings :  TotalTime  SetupTime   Separate  Propagate     EnfoLP     EnfoPS     EnfoRelax   Check    ResProp    SB-Prop
  benderslp        :       0.00       0.00       0.00       0.00       0.00       0.00       0.00       0.00       0.00       0.00
  integral         :     376.85       0.00       0.00       0.00     376.84       0.00       0.00       0.01       0.00       0.00
  knapsack         :       0.00       0.00       0.00       0.00       0.00       0.00       0.00       0.00       0.00       0.00
  setppc           :       5.36       0.01       0.08       2.14       0.00       0.00       0.00       0.01       0.18       2.94
  linear           :       2.74       0.90       0.00       1.61       0.00       0.00       0.00       0.00       0.02       0.21
  orbisack         :       0.03       0.00       0.00       0.03       0.00       0.00       0.00       0.00       0.00       0.00
  symretope        :       0.02       0.00       0.00       0.01       0.00       0.00       0.00       0.00       0.00       0.01
  logicor          :       0.05       0.00       0.00       0.02       0.00       0.00       0.00       0.00       0.01       0.01
  bounddisjunction :       0.05       0.00       0.00       0.02       0.00       0.00       0.00       0.00       0.01       0.02
  benders          :       0.00       0.00       0.00       0.00       0.00       0.00       0.00       0.00       0.00       0.00
  countsols        :       0.00       0.00       0.00       0.00       0.00       0.00       0.00       0.00       0.00       0.00
  components       :       0.00       0.00       0.00       0.00       0.00       0.00       0.00       0.00       0.00       0.00
Propagators        : #Propagate   #ResProp    Cutoffs    DomReds
  dualfix          :          4          0          0          0
  genvbounds       :          0          0          0          0
  nlobbt           :          0          0          0          0
  obbt             :          0          0          0          0
  probing          :          0          0          0          0
  pseudoobj        :       4085          0          1          0
  redcost          :       2330          0          0     425445
  rootredcost      :          2          0          0        286
  symmetry         :          0          0          0          0
  vbounds          :       4521          0          0          0
Propagator Timings :  TotalTime  SetupTime   Presolve  Propagate    ResProp    SB-Prop
  dualfix          :       0.00       0.00       0.00       0.00       0.00       0.00
  genvbounds       :       0.00       0.00       0.00       0.00       0.00       0.00
  nlobbt           :       0.00       0.00       0.00       0.00       0.00       0.00
  obbt             :       0.00       0.00       0.00       0.00       0.00       0.00
  probing          :      10.08       0.00      10.08       0.00       0.00       0.00
  pseudoobj        :       0.06       0.00       0.00       0.06       0.00       0.00
  redcost          :       1.74       0.00       0.00       1.74       0.00       0.00
  rootredcost      :       0.03       0.00       0.00       0.03       0.00       0.00
  symmetry         :       0.74       0.00       0.74       0.00       0.00       0.00
  vbounds          :       0.10       0.00       0.04       0.06       0.00       0.00
Orbital fixing     :
  vars fixed to 0  :          0
  vars fixed to 1  :          0
Conflict Analysis  :       Time      Calls    Success    DomReds  Conflicts   Literals    Reconvs ReconvLits   Dualrays   Nonzeros   LP Iters   (pool size: [10000,10000])
  propagation      :       0.36        157        138          -        644     1359.1          7     1282.7          -          -          -
  infeasible LP    :       1.42         81          3          -          9      757.1          0        0.0          2      128.5          0
  bound exceed. LP :      21.73        164        162          -        712      910.9         19      146.8          0        0.0       2250
  strong branching :       0.00          0          0          -          0        0.0          0        0.0          -          -          0
  pseudo solution  :       0.00          0          0          -          0        0.0          0        0.0          -          -          -
  applied globally :      15.82          -          -          0        623      552.2          -          -          2          -          -
  applied locally  :          -          -          -          0         43     2318.5          -          -          0          -          -
Separators         :   ExecTime  SetupTime      Calls  RootCalls    Cutoffs    DomReds  FoundCuts ViaPoolAdd  DirectAdd    Applied ViaPoolApp  DirectApp      Conss
  cut pool         :       0.00          -          0          0          -          -          0          0          -          -          -          -          -    (maximal pool size:          0)
  aggregation      :       0.40       0.00         36          1          0          0          0          0          0          0          0          0          0
  > cmir           :          -          -          -          -          -          -          -          0          0          0          0          0          -
  > flowcover      :          -          -          -          -          -          -          -          0          0          0          0          0          -
  > knapsackcover  :          -          -          -          -          -          -          -          0          0          0          0          0          -
  cgmip            :       0.00       0.00          0          0          0          0          0          0          0          0          0          0          0
  clique           :       5.13       0.00          1          1          0          0          0          0          0          0          0          0          0
  closecuts        :       0.00       0.00          0          0          0          0          0          0          0          0          0          0          0
  convexproj       :       0.00       0.00          0          0          0          0          0          0          0          0          0          0          0
  disjunctive      :       0.00       0.00          0          0          0          0          0          0          0          0          0          0          0
  eccuts           :       0.00       0.00          0          0          0          0          0          0          0          0          0          0          0
  gauge            :       0.00       0.00          0          0          0          0          0          0          0          0          0          0          0
  gomory           :       1.25       0.00         36          1          0          0          0          0          0          0          0          0          0
  > gomorymi       :          -          -          -          -          -          -          -          0          0          0          0          0          -
  > strongcg       :          -          -          -          -          -          -          -          0          0          0          0          0          -
  impliedbounds    :       0.04       0.00         36          1          0          0          0          0          0          0          0          0          0
  interminor       :       0.00       0.00          0          0          0          0          0          0          0          0          0          0          0
  intobj           :       0.00       0.00          0          0          0          0          0          0          0          0          0          0          0
  mcf              :       0.01       0.00          1          1          0          0          0          0          0          0          0          0          0
  minor            :       0.00       0.00          0          0          0          0          0          0          0          0          0          0          0
  mixing           :       0.00       0.00         36          1          0          0          0          0          0          0          0          0          0
  oddcycle         :       0.00       0.00          0          0          0          0          0          0          0          0          0          0          0
  rapidlearning    :       0.01       0.00          0          0          0          0          0          0          0          0          0          0          0
  rlt              :       0.00       0.00          1          1          0          0          0          0          0          0          0          0          0
  zerohalf         :       0.19       0.00         36          1          0          0          0          0          0          0          0          0          0
Cutselectors       :   ExecTime  SetupTime      Calls  RootCalls   Selected     Forced   Filtered  RootSelec   RootForc   RootFilt 
  hybrid           :       0.00       0.00          0          0          0          0          0          0          0          0
Pricers            :   ExecTime  SetupTime      Calls       Vars
  problem variables:       0.00          -          0          0
Branching Rules    :   ExecTime  SetupTime   BranchLP  BranchExt   BranchPS    Cutoffs    DomReds       Cuts      Conss   Children
  allfullstrong    :       0.00       0.00          0          0          0          0          0          0          0          0
  cloud            :       0.00       0.00          0          0          0          0          0          0          0          0
  distribution     :       0.00       0.00          0          0          0          0          0          0          0          0
  fullstrong       :       0.00       0.00          0          0          0          0          0          0          0          0
  inference        :       0.00       0.00          0          0          0          0          0          0          0          0
  leastinf         :       0.00       0.00          0          0          0          0          0          0          0          0
  lookahead        :       0.00       0.00          0          0          0          0          0          0          0          0
  mostinf          :       0.00       0.00          0          0          0          0          0          0          0          0
  multaggr         :       0.00       0.00          0          0          0          0          0          0          0          0
  nodereopt        :       0.00       0.00          0          0          0          0          0          0          0          0
  pscost           :       0.00       0.00          0          0          0          0          0          0          0          0
  random           :       0.00       0.00          0          0          0          0          0          0          0          0
  relpscost        :     376.84       0.00        596          0          0          1        283          0        402       1034
  vanillafullstrong:       0.00       0.00          0          0          0          0          0          0          0          0
Primal Heuristics  :   ExecTime  SetupTime      Calls      Found       Best
  LP solutions     :       0.00          -          -          0          0
  relax solutions  :       0.00          -          -          0          0
  pseudo solutions :       0.00          -          -          0          0
  strong branching :       0.01          -          -          1          1
  actconsdiving    :       0.00       0.00          0          0          0
  adaptivediving   :       0.49       0.00          2          0          0
  alns             :       1.25       0.00          5          0          0
  bound            :       0.00       0.00          0          0          0
  clique           :       0.80       0.00          1          1          1
  coefdiving       :       0.00       0.00          0          0          0
  completesol      :       0.00       0.00          0          0          0
  conflictdiving   :       3.23       0.00          2          0          0
  crossover        :       0.00       0.00          0          0          0
  dins             :       0.00       0.00          0          0          0
  distributiondivin:       0.61       0.00          1          0          0
  dps              :       0.00       0.00          0          0          0
  dualval          :       0.00       0.00          0          0          0
  farkasdiving     :       0.00       0.00          0          0          0
  feaspump         :      48.39       0.00          1          0          0
  fixandinfer      :       0.00       0.00          0          0          0
  fracdiving       :       0.62       0.00          2          0          0
  gins             :       0.12       0.00          0          0          0
  guideddiving     :       0.04       0.00          1          0          0
  indicator        :       0.00       0.00          0          0          0
  intdiving        :       0.00       0.00          0          0          0
  intshifting      :       0.00       0.00          0          0          0
  linesearchdiving :       0.36       0.00          1          0          0
  localbranching   :       0.00       0.00          0          0          0
  locks            :       0.14       0.00          1          0          0
  lpface           :       0.00       0.00          0          0          0
  mpec             :       0.00       0.00          0          0          0
  multistart       :       0.00       0.00          0          0          0
  mutation         :       0.00       0.00          0          0          0
  nlpdiving        :       0.00       0.00          0          0          0
  objpscostdiving  :       0.19       0.00          1          0          0
  octane           :       0.00       0.00          0          0          0
  ofins            :       0.00       0.00          0          0          0
  oneopt           :       0.03       0.00          2          0          0
  padm             :       0.00       0.00          0          0          0
  proximity        :       0.00       0.00          0          0          0
  pscostdiving     :       0.15       0.00          2          0          0
  randrounding     :       0.09       0.00         27          0          0
  rens             :       0.13       0.00          1          0          0
  reoptsols        :       0.00       0.00          0          0          0
  repair           :       0.00       0.00          0          0          0
  rins             :       0.79       0.00          5          0          0
  rootsoldiving    :       1.25       0.00          1          0          0
  rounding         :       0.91       0.00        303          0          0
  shiftandpropagate:       0.00       0.00          0          0          0
  shifting         :       1.12       0.00         49          0          0
  simplerounding   :       0.00       0.00          0          0          0
  subnlp           :       0.00       0.00          0          0          0
  trivial          :       0.06       0.00          2          0          0
  trivialnegation  :       0.00       0.00          0          0          0
  trustregion      :       0.00       0.00          0          0          0
  trysol           :       0.00       0.00          0          0          0
  twoopt           :       0.00       0.00          0          0          0
  undercover       :       0.00       0.00          0          0          0
  vbounds          :      11.43       0.00          1          0          0
  veclendiving     :       0.00       0.00          1          0          0
  zeroobj          :       0.00       0.00          0          0          0
  zirounding       :       0.06       0.00        517          0          0
  other solutions  :          -          -          -          0          -
LP                 :       Time      Calls Iterations  Iter/call   Iter/sec  Time-0-It Calls-0-It    ItLimit
  primal LP        :       2.75          1          0       0.00       0.00       2.75          1
  dual LP          :     244.92       2172     611846     594.60    2498.11       4.66       1143
  lex dual LP      :       0.00          0          0       0.00          -
  barrier LP       :       0.00          0          0       0.00          -       0.00          0
  resolve instable :       0.00          0          0       0.00          -
  diving/probing LP:      53.98         24      21333     888.88     395.21
  strong branching :     349.96        685     478882     699.10    1368.38          -          -        763
    (at root node) :          -         79      73245     927.15          -
  conflict analysis:       6.11        225       2250      10.00     368.49
B&B Tree           :
  number of runs   :          1
  nodes            :       1021 (517 internal, 504 leaves)
  feasible leaves  :          0
  infeas. leaves   :        108
  objective leaves :        396
  nodes (total)    :       1021 (517 internal, 504 leaves)
  nodes left       :          0
  max depth        :         63
  max depth (total):         63
  backtracks       :        192 (18.8%)
  early backtracks :          0 (0.0%)
  nodes exc. ref.  :          0 (0.0%)
  delayed cutoffs  :         14
  repropagations   :        152 (1893 domain reductions, 10 cutoffs)
  avg switch length:       5.54
  switching time   :       5.40
Root Node          :
  First LP value   : +8.50000000000000e+00
  First LP Iters   :       2720 (566.34 Iter/sec)
  First LP Time    :       4.80
  Final Dual Bound : +8.69318054520209e+00
  Final Root Iters :       2720
  Root LP Estimate : +1.50322778838231e+01
Solution           :
  Solutions found  :          2 (2 improvements)
  First Solution   : +2.50000000000000e+01   (in run 1, after 1 nodes, 19.92 seconds, depth 4, found by <clique>)
  Gap First Sol.   :     525.00 %
  Gap Last Sol.    :      72.55 %
  Primal Bound     : +1.50000000000000e+01   (in run 1, after 2 nodes, 223.78 seconds, depth 3, found by <relaxation>)
  Dual Bound       : +1.50000000000000e+01
  Gap              :       0.00 %
Integrals          :      Total       Avg%
  primal-dual      :   32252.61      43.57
  primal-ref       :          -          - (not evaluated)
  dual-ref         :          -          - (not evaluated)
written solution information to file <results/final_miplib_symretope_if_extended_generating_set_cpx_v802__settings_final_nopeek_norelabel_extend_norestarts__1__square31.mps.gz.sol>
@04 1686657178
